data/mip_solutions/furman_sahinidis/reduced_transportation/12sp1_gurobi.sol
Elapsed time: 0.12713098526
Nodes explored: 0
Upper bound: 12.0
Lower bound: 12.0
y[0,0]=1
y[0,1]=1
y[1,1]=1
y[2,1]=1
y[2,2]=1
y[3,0]=1
y[4,0]=1
y[5,1]=1
y[6,2]=1
y[7,1]=1
y[8,0]=1
y[9,1]=1
q[0,1,1,1]=28992.816
q[0,1,1,2]=-1.44227763845e-10
q[0,2,1,2]=42683.868
q[0,3,1,3]=9297.872
q[0,3,1,4]=2782.468
q[0,4,1,4]=10469.628
q[0,5,1,5]=11677.662
q[0,6,0,12]=13753.742
q[0,6,1,6]=19265.854
q[0,7,1,7]=8858.916
q[0,8,0,10]=4429.458
q[0,9,0,10]=16107.12
q[0,10,0,11]=18714.677
q[0,10,0,12]=1419.223
q[1,2,1,3]=8353.345
q[1,2,1,5]=5732.227
q[1,2,1,6]=9480.136
q[1,3,1,3]=6669.54
q[1,4,1,4]=5780.268
q[1,5,1,5]=6447.222
q[1,6,1,6]=18230.076
q[1,7,1,7]=9.49999999995
q[1,7,1,8]=4881.496
q[1,8,1,8]=2445.498
q[1,9,1,9]=7114.176
q[2,5,1,9]=9896.54
q[2,6,1,6]=20481.972
q[2,6,1,7]=7205.334
q[2,6,2,6]=296.014
q[2,7,1,9]=4465.142
q[2,7,2,7]=3042.578
q[2,8,1,9]=3753.86
q[2,9,1,9]=6664.268
q[2,9,2,9]=3508.427
q[2,9,2,10]=3477.705
q[2,10,2,10]=3412.6
q[3,8,0,10]=6090.26
q[3,9,0,10]=22146.4
q[3,10,0,10]=16609.8
q[4,3,0,11]=1131.75
q[4,4,0,11]=980.85
q[4,5,0,12]=1094.025
q[4,6,0,10]=768.178
q[4,6,0,11]=2325.272
q[4,7,0,12]=829.95
q[4,8,0,11]=414.975
q[4,9,0,12]=1509.0
q[4,10,0,10]=3772.5
q[5,4,1,4]=2356.77
q[5,5,1,8]=1722.255
q[6,6,2,6]=5374.245
q[6,6,2,9]=1148.527
q[6,7,2,8]=1521.289
q[6,7,2,10]=228.723
q[6,8,2,9]=875.006
q[6,9,2,10]=3181.84
q[6,10,2,10]=7954.6
q[7,7,1,7]=2024.748
q[7,8,1,9]=1012.374
q[8,9,0,10]=3412.12
q[8,10,0,10]=8530.3
q[9,0,1,0]=30438.383
q[9,0,1,1]=30238.632
q[9,0,1,2]=44517.986
q[9,0,1,3]=359.013
